% demand
num_movements = 31;
loading_factor = [1350, 950, 1100, 1850, 1000, 1450, 1800, 950, 1500, 1450, 1200, 1850, 1450, 1450, 1250, 1800, 1050, 1350, 1200, 900, 1700, 1800, 1450, 1300, 1250, 1250, 1450, 900, 1050, 1550, 1100];
pickup_time = [0, 0, 0, 0, 0, 2, 2, 3, 3, 3, 4, 5, 7, 7, 8, 8, 8, 9, 9, 10, 10, 10, 10, 11, 11, 12, 12, 13, 13, 13, 13];
delivery_time = [10, 1, 2, 1, 1, 3, 3, 6, 5, 7, 8, 7, 9, 8, 10, 10, 9, 10, 10, 13, 11, 12, 13, 13, 12, 13, 13, 14, 14, 14, 14];

% transporter definition
total_capacity = 7000;
num_decks = 3;
capacity = [3000, 1000, 3000];

% ways out of decks
num_ways_out = 1;
paths_out = array3d(decks, ways_out, decks, [
% ways out of deck d1
2, 3, 0, 

% ways out of deck d2
3, 0, 0, 

% ways out of deck d3
0, 0, 0,	

]);

